70
1 0 1
3 0 6
3 1 4
4 0 6
4 1 3
5 1 2
5 3 4
5 4 5
6 1 5
6 2 2
6 3 3
6 4 4
7 2 6
7 6 6
8 1 3
8 2 6
8 4 3
8 5 4
9 0 3
9 1 6
9 2 5
10 2 3
10 4 1
10 5 5
10 6 2
10 7 2
10 8 6
10 9 6
11 0 4
11 3 3
11 6 5
11 7 5
12 3 2
12 4 2
12 6 1
12 8 6
12 9 5
12 10 2
13 0 5
13 3 1
13 4 3
13 5 6
13 7 4
13 11 2
14 0 6
14 1 3
14 2 4
14 3 6
14 5 6
14 9 3
14 11 3
14 12 1
15 2 2
15 3 6
15 4 4
15 6 6
15 7 3
15 8 6
15 9 2
15 10 5
15 12 1
15 13 4
16 1 2
16 3 5
16 5 3
16 9 2
16 15 4
17 1 5
17 2 3
17 3 2
17 4 2
17 5 5
17 7 2
17 9 2
17 11 5
17 13 2
17 15 2
18 0 4
18 4 3
18 5 2
18 8 3
18 11 2
18 12 4
18 15 3
19 1 1
19 2 2
19 3 2
19 4 2
19 5 6
19 6 4
19 8 1
19 9 3
19 10 3
19 11 3
19 14 1
19 15 1
19 17 4
20 1 2
20 3 4
20 7 3
20 9 1
20 10 3
20 14 1
21 0 5
21 1 1
21 2 5
21 3 1
21 5 1
21 9 2
21 10 2
21 11 2
21 15 1
21 17 1
21 19 2
22 0 4
22 1 6
22 3 5
22 6 5
22 9 3
22 11 3
22 13 5
22 14 4
22 17 2
22 18 1
22 21 2
23 0 3
23 1 5
23 3 3
23 5 1
23 10 6
23 15 1
23 17 2
23 18 2
23 20 5
23 21 5
23 22 2
24 0 2
24 1 2
24 3 5
24 4 5
24 5 4
24 6 1
24 10 1
24 11 5
24 20 5
24 21 4
24 22 4
24 23 6
25 0 2
25 2 2
25 3 3
25 6 1
25 8 3
25 9 3
25 10 3
25 11 5
25 13 5
25 16 4
25 17 5
25 18 1
25 22 2
25 23 5
26 0 6
26 2 1
26 5 5
26 6 5
26 8 4
26 9 2
26 11 3
26 12 5
26 13 3
26 17 4
26 23 4
27 2 5
27 4 4
27 7 1
27 8 3
27 10 5
27 11 2
27 12 2
27 14 4
27 17 3
27 18 3
27 20 5
27 22 2
27 24 4
27 26 5
28 1 1
28 3 3
28 6 4
28 10 1
28 11 2
28 15 5
28 16 2
28 18 1
28 21 1
28 24 6
28 25 1
28 27 5
29 0 2
29 1 5
29 2 2
29 5 5
29 7 6
29 11 3
29 13 1
29 14 2
29 16 3
29 20 5
29 24 3
29 28 6
30 5 5
30 6 3
30 8 1
30 10 6
30 12 1
30 13 2
30 15 2
30 16 2
30 19 3
30 20 4
30 22 4
30 24 2
30 25 4
30 28 2
31 0 2
31 1 6
31 2 2
31 4 3
31 7 1
31 8 4
31 9 6
31 11 2
31 12 6
31 14 6
31 15 1
31 16 1
31 17 4
31 21 1
31 22 2
31 24 6
31 25 1
31 26 2
31 29 6
32 4 5
32 6 2
32 7 3
32 11 3
32 12 1
32 13 1
32 14 3
32 16 1
32 21 2
32 22 6
32 24 6
32 26 4
32 27 2
32 28 3
32 29 1
33 0 2
33 2 4
33 4 5
33 5 1
33 7 3
33 8 1
33 9 2
33 12 5
33 13 1
33 17 3
33 22 3
33 24 4
33 25 6
33 32 1
34 1 1
34 2 3
34 3 2
34 4 4
34 5 5
34 8 4
34 10 4
34 12 5
34 14 2
34 15 6
34 16 2
34 17 1
34 18 1
34 19 3
34 21 1
34 22 6
34 23 6
34 28 3
34 29 5
34 33 6
35 0 6
35 1 6
35 2 2
35 3 5
35 4 1
35 6 5
35 7 2
35 9 3
35 11 6
35 12 5
35 15 3
35 17 1
35 18 5
35 19 3
35 20 5
35 21 5
35 25 5
35 26 3
35 27 6
35 29 6
35 30 1
35 32 1
35 33 2
36 1 4
36 4 2
36 5 3
36 6 4
36 10 1
36 11 1
36 12 3
36 13 4
36 14 4
36 15 2
36 17 6
36 21 1
36 22 6
36 23 6
36 29 2
36 30 4
36 31 6
37 0 3
37 4 5
37 6 4
37 9 1
37 10 5
37 14 4
37 15 4
37 17 2
37 19 6
37 20 2
37 21 1
37 22 6
37 23 6
37 24 6
37 27 6
37 31 1
37 34 4
37 35 4
37 36 3
38 0 2
38 2 1
38 3 2
38 6 4
38 7 2
38 10 3
38 12 5
38 14 6
38 16 3
38 17 5
38 18 3
38 19 6
38 20 1
38 21 3
38 22 1
38 27 1
38 28 3
38 29 1
38 32 5
38 35 5
38 36 2
38 37 4
39 1 2
39 6 2
39 7 6
39 8 1
39 11 5
39 13 5
39 16 4
39 18 5
39 19 3
39 24 4
39 25 5
39 26 2
39 28 1
39 30 5
39 35 3
39 38 3
40 3 5
40 4 3
40 5 6
40 6 3
40 9 2
40 10 1
40 12 4
40 13 6
40 16 4
40 18 2
40 20 4
40 21 5
40 22 4
40 23 1
40 26 1
40 27 5
40 28 1
40 34 4
40 36 1
40 37 6
40 38 5
41 1 4
41 2 6
41 3 4
41 4 1
41 6 5
41 7 6
41 9 5
41 10 4
41 11 3
41 13 4
41 15 3
41 16 2
41 18 1
41 19 6
41 20 3
41 21 2
41 27 4
41 31 6
41 34 2
41 35 4
41 37 1
41 38 4
41 39 4
42 0 6
42 2 3
42 7 2
42 9 2
42 10 2
42 11 1
42 13 6
42 14 4
42 16 5
42 18 1
42 19 3
42 21 2
42 22 2
42 23 4
42 26 3
42 27 4
42 29 2
42 32 4
42 33 4
42 34 1
42 36 2
42 38 5
42 39 5
42 41 3
43 2 1
43 3 4
43 4 2
43 6 3
43 7 5
43 9 1
43 10 5
43 11 2
43 14 6
43 16 1
43 20 4
43 22 6
43 24 4
43 25 3
43 27 5
43 33 4
43 35 4
43 38 1
43 40 2
43 41 2
44 3 5
44 4 2
44 5 2
44 6 4
44 9 2
44 13 6
44 14 5
44 20 6
44 22 6
44 25 1
44 26 6
44 29 5
44 30 6
44 31 2
44 33 4
44 34 6
44 36 1
44 39 1
44 41 1
45 2 1
45 3 2
45 8 5
45 13 5
45 17 3
45 18 1
45 21 1
45 24 1
45 26 4
45 28 4
45 31 2
45 32 1
45 33 2
45 36 1
45 37 3
45 40 4
45 41 1
45 42 1
45 44 6
46 4 2
46 5 5
46 6 4
46 7 4
46 12 5
46 14 4
46 17 6
46 20 1
46 21 4
46 22 1
46 24 2
46 25 6
46 30 5
46 32 3
46 34 3
46 35 4
46 38 1
46 39 2
46 44 1
47 5 4
47 6 5
47 7 3
47 9 3
47 11 5
47 13 3
47 15 6
47 17 2
47 21 4
47 22 1
47 23 2
47 25 6
47 27 2
47 31 1
47 34 1
47 39 1
47 40 5
47 41 6
47 42 5
47 43 4
47 45 5
48 1 2
48 2 3
48 5 2
48 6 6
48 7 6
48 10 1
48 12 6
48 15 1
48 17 4
48 18 4
48 19 5
48 21 4
48 23 6
48 27 4
48 28 5
48 29 1
48 31 6
48 32 3
48 33 3
48 34 3
48 37 2
48 38 5
48 39 1
48 41 3
48 42 3
49 0 4
49 2 2
49 4 4
49 6 2
49 9 5
49 10 1
49 11 6
49 12 5
49 13 1
49 15 1
49 16 4
49 18 2
49 19 1
49 23 6
49 24 5
49 25 5
49 26 2
49 29 6
49 32 5
49 33 4
49 35 6
49 38 1
49 40 1
49 42 2
49 43 4
49 44 6
50 3 1
50 4 4
50 5 6
50 8 3
50 10 5
50 12 2
50 13 6
50 14 2
50 15 4
50 16 1
50 17 3
50 19 6
50 21 4
50 22 1
50 23 1
50 24 2
50 25 5
50 26 1
50 27 3
50 30 4
50 31 5
50 32 5
50 33 2
50 37 5
50 38 3
50 39 1
50 42 2
50 45 2
50 47 1
50 48 2
51 1 4
51 3 2
51 10 3
51 14 5
51 17 2
51 21 3
51 23 6
51 27 2
51 31 1
51 33 6
51 34 1
51 38 5
51 40 1
51 41 6
51 42 3
51 43 1
51 44 6
51 45 1
51 47 6
51 48 5
52 0 3
52 1 2
52 3 2
52 4 2
52 7 3
52 8 2
52 10 1
52 12 5
52 14 6
52 15 3
52 16 2
52 19 6
52 22 2
52 23 1
52 25 2
52 26 5
52 28 5
52 29 6
52 31 1
52 34 4
52 36 1
52 37 5
52 39 5
52 42 1
52 47 4
52 48 2
52 49 3
52 50 6
52 51 6
53 6 6
53 13 4
53 21 6
53 22 3
53 23 4
53 25 6
53 27 3
53 29 4
53 31 4
53 33 1
53 36 1
53 37 5
53 40 2
53 41 1
53 43 2
53 48 6
53 50 4
54 2 5
54 3 3
54 4 4
54 5 6
54 6 6
54 8 2
54 9 4
54 10 5
54 12 3
54 16 5
54 17 6
54 18 6
54 21 5
54 22 4
54 24 2
54 27 2
54 32 4
54 33 5
54 34 6
54 36 2
54 38 2
54 39 1
54 40 5
54 41 3
54 44 4
54 47 3
54 49 4
54 50 2
54 52 1
55 0 2
55 2 2
55 3 3
55 10 6
55 11 6
55 12 3
55 14 2
55 16 3
55 18 6
55 22 4
55 24 2
55 25 4
55 27 6
55 32 3
55 33 5
55 34 3
55 35 4
55 37 1
55 40 4
55 43 1
55 47 4
55 48 4
55 49 1
55 50 5
55 51 5
56 1 2
56 3 4
56 4 5
56 6 5
56 7 3
56 10 3
56 11 5
56 13 6
56 15 5
56 17 3
56 18 5
56 19 3
56 20 6
56 21 1
56 22 2
56 23 5
56 25 2
56 27 3
56 28 2
56 31 2
56 32 4
56 37 4
56 38 6
56 39 3
56 41 4
56 42 1
56 45 5
56 46 6
56 47 3
56 50 1
56 51 6
56 53 5
56 54 4
57 0 2
57 2 3
57 4 1
57 5 1
57 7 3
57 9 4
57 12 3
57 14 4
57 19 3
57 21 5
57 23 4
57 24 1
57 25 6
57 26 2
57 28 4
57 31 1
57 32 2
57 35 1
57 40 1
57 42 6
57 43 5
57 44 6
57 45 4
57 46 3
57 47 3
57 48 6
57 50 5
57 51 4
57 53 4
57 54 6
58 0 1
58 2 3
58 5 6
58 8 5
58 11 1
58 14 3
58 15 1
58 17 6
58 18 5
58 19 1
58 21 6
58 22 1
58 24 4
58 25 4
58 27 6
58 28 3
58 29 4
58 32 6
58 36 2
58 38 4
58 39 4
58 40 5
58 44 5
58 46 2
58 48 4
58 53 5
58 54 3
58 57 3
59 2 1
59 4 6
59 5 4
59 6 5
59 7 2
59 9 3
59 13 1
59 14 3
59 17 3
59 18 6
59 21 1
59 22 5
59 23 3
59 25 3
59 26 6
59 27 2
59 31 2
59 34 5
59 37 3
59 38 1
59 43 2
59 46 3
59 47 5
59 48 4
59 50 2
59 52 6
59 54 3
59 55 5
59 58 5
60 0 2
60 2 4
60 7 6
60 9 3
60 11 5
60 13 3
60 15 5
60 16 5
60 17 2
60 19 4
60 20 5
60 22 3
60 27 2
60 30 5
60 33 3
60 37 3
60 39 6
60 42 3
60 43 5
60 44 5
60 48 6
60 49 3
60 51 5
60 54 3
60 55 1
60 56 5
61 2 1
61 3 1
61 4 6
61 6 1
61 8 1
61 9 3
61 11 4
61 12 3
61 13 3
61 14 2
61 15 1
61 16 5
61 17 2
61 20 6
61 21 1
61 23 2
61 26 4
61 28 1
61 29 2
61 31 6
61 32 4
61 38 4
61 41 1
61 42 3
61 46 1
61 48 2
61 49 3
61 50 1
61 53 1
61 54 1
61 55 3
61 58 3
61 59 5
61 60 4
62 1 6
62 6 5
62 8 4
62 9 2
62 11 5
62 12 2
62 14 4
62 18 4
62 21 3
62 22 2
62 27 1
62 30 5
62 35 6
62 37 2
62 39 1
62 41 2
62 42 2
62 44 5
62 45 2
62 47 4
62 48 4
62 49 5
62 50 6
62 53 4
62 56 4
63 0 2
63 2 4
63 3 3
63 6 3
63 15 2
63 21 5
63 22 1
63 23 2
63 27 4
63 29 3
63 30 2
63 31 3
63 32 4
63 33 1
63 35 4
63 37 6
63 39 5
63 42 1
63 45 1
63 47 4
63 48 5
63 51 5
63 53 5
63 55 3
63 56 6
63 57 1
63 59 4
63 60 3
63 61 2
63 62 1
64 2 3
64 7 5
64 8 3
64 10 1
64 11 3
64 14 2
64 19 2
64 20 6
64 21 1
64 22 1
64 23 5
64 26 2
64 30 6
64 38 3
64 39 4
64 40 2
64 41 2
64 42 6
64 45 6
64 50 5
64 52 2
64 53 3
64 55 5
64 58 2
64 59 1
64 61 5
64 62 5
64 63 2
65 1 3
65 2 5
65 3 1
65 7 3
65 9 4
65 11 6
65 12 4
65 14 5
65 15 1
65 17 2
65 18 5
65 22 1
65 24 5
65 26 2
65 27 6
65 28 2
65 30 3
65 31 4
65 35 2
65 37 5
65 40 2
65 41 1
65 45 5
65 49 2
65 50 5
65 51 2
65 54 3
65 55 1
65 56 5
65 57 5
65 58 5
65 64 3
66 1 6
66 2 1
66 3 4
66 6 6
66 9 6
66 10 5
66 11 2
66 14 3
66 15 5
66 16 2
66 18 3
66 21 2
66 26 3
66 28 3
66 29 5
66 33 4
66 38 5
66 39 4
66 43 6
66 44 2
66 48 2
66 52 3
66 53 3
66 55 2
66 56 3
66 57 4
66 59 3
66 60 3
66 61 5
66 62 2
66 63 3
66 64 2
66 65 3
67 7 1
67 8 3
67 9 4
67 11 2
67 12 1
67 17 5
67 19 5
67 21 6
67 22 4
67 23 6
67 24 6
67 25 3
67 29 5
67 30 6
67 31 6
67 32 6
67 34 2
67 35 2
67 36 2
67 39 5
67 40 6
67 43 3
67 44 5
67 45 6
67 47 1
67 49 2
67 50 2
67 52 4
67 53 3
67 55 1
67 58 2
67 59 5
67 60 2
67 62 3
67 64 3
68 0 2
68 2 1
68 3 4
68 4 1
68 5 5
68 7 2
68 10 3
68 11 1
68 13 4
68 15 4
68 23 6
68 25 6
68 26 1
68 27 1
68 29 5
68 30 1
68 35 6
68 39 4
68 41 5
68 42 4
68 43 2
68 46 1
68 48 6
68 49 2
68 51 1
68 54 5
68 59 2
68 60 5
68 61 6
68 62 2
68 63 4
68 64 4
68 66 6
68 67 6
69 1 1
69 2 6
69 4 1
69 5 4
69 6 3
69 10 4
69 12 1
69 13 1
69 14 2
69 15 4
69 16 1
69 18 2
69 20 1
69 23 1
69 27 4
69 28 3
69 29 5
69 30 1
69 31 4
69 34 3
69 35 1
69 36 2
69 37 2
69 38 4
69 40 6
69 41 3
69 42 5
69 44 2
69 45 1
69 46 2
69 47 2
69 48 5
69 50 5
69 51 1
69 52 5
69 53 3
69 55 1
69 57 4
69 59 2
69 60 4
69 61 2
69 62 6
69 63 2
